p cnf 20 10
a 1 2 0
e 3 4 0
a 5 0
e 6 7 0
a 8 0
e 9 0
a 10 11 12 0
e 13 0
a 14 0
e 15 0
a 16 0
e 17 0
a 18 0
e 19 20 0
-12 -19 -18 -11 0
2 -18 3 -7 13 0
-11 -10 20 -3 0
-15 -13 -7 20 2 0
7 -19 -13 -11 -14 0
5 20 -14 0
20 13 -11 -18 -10 0
13 15 -5 0
15 3 6 12 -9 0
-4 -8 -18 -20 5 0
